170
208
153
173
265
247
174
130
218
234
305
147
199
203
178
140
189
170
119
124
181
154
205
172
188
87
239
306
163
154
204
358
155
347
298
205
164
193
232
194
204
194
149
253
229
224
233
138
163
200
193
224
243
146
159
368
158
132
132
222
264
163
159
173
140
117
274
168
205
187
167
137
100
256
346
268
185
189
256
185
214
118
128
182
250
151
94
197
205
199
271
240
166
146
175
107
236
206
108
96
